%nprocshared=16
%mem=64GB
%chk=mytest.chk
# opt freq b3lyp/lanl2dz geom=connectivity

cis-(Me3P)2Pt(CO)2 2+

2 1
 Pt                 2.97690442   -4.37329226    0.32300176
 P                  5.18235047   -4.35585932   -0.44766403
 P                  3.21013334   -2.13693670    0.99097685
 C                  2.79433510   -6.35515979   -0.24249059
 O                  2.72750026   -7.40508754   -0.53344615
 C                  0.99281002   -4.38824065    0.89857783
 O                 -0.07454815   -4.39878336    1.21473190
 C                  5.33002656   -5.53440159   -1.83501029
 H                  6.33061074   -5.51395371   -2.21060938
 H                  5.09654113   -6.52625954   -1.49671129
 H                  4.64796884   -5.25483421   -2.61538601
 C                  6.31807783   -4.83138039    0.88068987
 H                  7.31632634   -4.81556204    0.51260272
 H                  6.23158479   -4.14120752    1.69077721
 H                  6.07284923   -5.81620857    1.21870763
 C                  5.60342989   -2.67583741   -1.01389473
 H                  5.52682181   -1.98752087   -0.19594772
 H                  6.60220617   -2.66750349   -1.38781549
 H                  4.93024502   -2.38493434   -1.78879177
 C                  4.23198089   -2.07564290    2.49962251
 H                  5.20234250   -2.47825136    2.28999592
 H                  4.32834191   -1.06445663    2.83012780
 H                  3.76680496   -2.65743040    3.26857130
 C                  4.01459722   -1.18909872   -0.33918892
 H                  4.10785560   -0.18148982   -0.03349823
 H                  4.98215998   -1.59778566   -0.53377536
 H                  3.43583816   -1.23690390   -1.22990389
 C                  1.57199743   -1.42154890    1.35043891
 H                  1.68452586   -0.39756326    1.65253300
 H                  0.96359960   -1.46527166    0.47019575
 H                  1.10908642   -1.97127702    2.13925578

 1 2 1.0 3 1.0 4 1.0 6 1.0
 2 8 1.0 12 1.0 16 1.0
 3 20 1.0 24 1.0 28 1.0
 4 5 3.0
 5
 6 7 3.0
 7
 8 9 1.0 10 1.0 11 1.0
 9
 10
 11
 12 13 1.0 14 1.0 15 1.0
 13
 14
 15
 16 17 1.0 18 1.0 19 1.0
 17
 18
 19
 20 21 1.0 22 1.0 23 1.0
 21
 22
 23
 24 25 1.0 26 1.0 27 1.0
 25
 26
 27
 28 29 1.0 30 1.0 31 1.0
 29
 30
 31

